HUN,8,6,980
2,19,1,14,0,7,5,19,3,1,4,22
2,5,0,6,1,24,3,16,5,8,4,9
0,19,2,2,1,14,4,29,3,11,5,14
2,28,1,24,0,10,5,10,4,6,3,24
0,12,2,15,1,25,3,2,5,10,4,17
0,26,2,14,1,10,5,20,4,4,3,4
2,28,0,23,1,8,5,3,4,2,3,18
2,13,0,19,1,12,5,16,4,30,3,2
